solution status: gap limit reached
objective value:                          45603.93346
y#1                                                 1 	(obj:5700)
y#2                                                 1 	(obj:5700)
y#17                                                1 	(obj:5700)
y#22                                                1 	(obj:5700)
y#26                                                1 	(obj:5700)
y#35                                                1 	(obj:5700)
y#40                                                1 	(obj:5700)
y#45                                                1 	(obj:5700)
x#1#40                                              1 	(obj:0.00731)
x#2#2                                               1 	(obj:0.02941)
x#3#1                                               1 	(obj:0.02074)
x#4#22                                              1 	(obj:0.09231)
x#5#45                                              1 	(obj:0.03502)
x#6#26                                              1 	(obj:0.06205)
x#7#26                                              1 	(obj:0.02074)
x#8#17                                              1 	(obj:0.02023)
x#9#26                                              1 	(obj:0.00816)
x#10#35                                             1 	(obj:0.12087)
x#11#45                                             1 	(obj:0.02958)
x#12#1                                              1 	(obj:0.06086)
x#13#1                                              1 	(obj:0.02057)
x#14#35                                             1 	(obj:0.06919)
x#15#1                                              1 	(obj:0.04114)
x#16#2                                              1 	(obj:0.04862)
x#17#17                                             1 	(obj:0.0238)
x#18#45                                             1 	(obj:0.02975)
x#19#26                                             1 	(obj:0.05814)
x#20#2                                              1 	(obj:0.051)
x#21#1                                              1 	(obj:0.10387)
x#22#2                                              1 	(obj:0.03502)
x#23#22                                             1 	(obj:0.01972)
x#24#17                                             1 	(obj:0.01122)
x#25#22                                             1 	(obj:0.0459)
x#26#22                                             1 	(obj:0.04845)
x#27#1                                              1 	(obj:0.05372)
x#28#26                                             1 	(obj:0.0272)
x#29#40                                             1 	(obj:0.03247)
x#30#45                                             1 	(obj:0.01343)
x#31#22                                             1 	(obj:0.03893)
x#32#40                                             1 	(obj:0.00476)
x#33#1                                              1 	(obj:0.04556)
x#34#2                                              1 	(obj:0.01734)
x#35#2                                              1 	(obj:0.02873)
x#36#40                                             1 	(obj:0.01887)
x#37#17                                             1 	(obj:0.034)
x#38#40                                             1 	(obj:0.02737)
x#39#17                                             1 	(obj:0.03213)
x#40#2                                              1 	(obj:0.02669)
x#41#35                                             1 	(obj:0.02584)
x#42#17                                             1 	(obj:0.03366)
x#43#26                                             1 	(obj:0.03808)
x#44#35                                             1 	(obj:0.07191)
x#45#45                                             1 	(obj:0.14586)
x#46#35                                             1 	(obj:0.17136)
x#47#1                                              1 	(obj:0.11271)
x#48#2                                              1 	(obj:0.06613)
x#49#2                                              1 	(obj:0.02244)
x#50#22                                             1 	(obj:0.03349)
x#51#26                                             1 	(obj:0.00952)
x#52#17                                             1 	(obj:0.0323)
x#53#40                                             1 	(obj:0.06103)
x#54#35                                             1 	(obj:0.07174)
x#55#40                                             1 	(obj:0.0068)
x#56#22                                             1 	(obj:0.05882)
x#57#26                                             1 	(obj:0.02839)
x#58#17                                             1 	(obj:0.02601)
x#59#45                                             1 	(obj:0.0306)
x#60#1                                              1 	(obj:0.0374)
x#61#1                                              1 	(obj:0.07412)
x#62#22                                             1 	(obj:0.02431)
x#63#40                                             1 	(obj:0.00799)
x#64#45                                             1 	(obj:0.0187)
x#65#45                                             1 	(obj:0.03876)
x#66#40                                             1 	(obj:0.12733)
x#67#22                                             1 	(obj:0.03111)
x#68#35                                             1 	(obj:0.08177)
x#69#22                                             1 	(obj:0.04896)
x#70#22                                             1 	(obj:0.02958)
x#71#17                                             1 	(obj:0.02397)
x#72#35                                             1 	(obj:0.05134)
x#73#22                                             1 	(obj:0.03179)
x#74#1                                              1 	(obj:0.03383)
x#75#1                                              1 	(obj:0.1122)
x#76#45                                             1 	(obj:0.0221)
x#77#2                                              1 	(obj:0.03944)
x#78#2                                              1 	(obj:0.06358)
x#79#45                                             1 	(obj:0.02703)
x#80#45                                             1 	(obj:0.03808)
x#81#2                                              1 	(obj:0.04233)
x#82#26                                             1 	(obj:0.04233)
x#83#26                                             1 	(obj:0.02652)
x#84#40                                             1 	(obj:0.01972)
x#85#17                                             1 	(obj:0.0136)
x#86#17                                             1 	(obj:0.02771)
x#87#26                                             1 	(obj:0.03519)
x#88#35                                             1 	(obj:0.10897)
x#89#40                                             1 	(obj:0.01802)
x#90#35                                             1 	(obj:0.07412)
